Name: Picolinyl 9,12-hexadecadienoate
Formula: C22H33NO2
MW: 343
NIST#: 335771
DB#: 55974
Comments: William W. Christie, Mylnefield Lipid Analysis, Invergowrie, Dundee, Scotland, UK
Num Peaks: 203
51 50; 52 40; 53 129; 54 149; 55 449; 
56 70; 57 199; 58 10; 59 10; 60 10; 
62 10; 63 40; 64 60; 65 319; 66 70; 
67 559; 68 80; 69 159; 70 30; 71 100; 
72 10; 73 10; 74 10; 75 10; 77 109; 
78 60; 79 269; 80 139; 81 299; 82 60; 
83 80; 84 20; 85 60; 86 10; 87 10; 
88 10; 89 10; 91 169; 92 999; 93 559; 
94 100; 95 169; 96 40; 97 60; 98 20; 
99 30; 100 10; 101 10; 104 10; 105 20; 
106 30; 107 60; 108 569; 109 309; 110 80; 
111 40; 112 10; 113 20; 115 10; 116 10; 
117 20; 118 20; 119 20; 120 10; 121 40; 
122 10; 123 50; 124 10; 125 20; 126 10; 
127 20; 128 10; 129 10; 130 10; 131 20; 
132 10; 133 30; 134 20; 135 40; 136 10; 
137 30; 138 10; 139 10; 140 10; 141 10; 
144 10; 145 10; 146 20; 147 20; 148 20; 
149 70; 151 179; 152 30; 153 20; 155 10; 
157 10; 158 10; 159 10; 160 10; 161 10; 
162 10; 164 479; 165 70; 166 10; 167 20; 
168 10; 169 10; 172 10; 173 10; 174 10; 
175 10; 176 40; 177 20; 178 80; 179 20; 
182 10; 184 10; 186 10; 187 10; 188 10; 
190 10; 191 10; 192 40; 193 20; 196 10; 
199 10; 200 10; 202 10; 203 10; 204 20; 
205 10; 206 60; 207 20; 208 10; 209 10; 
211 10; 215 10; 216 10; 217 10; 218 10; 
219 20; 220 80; 221 20; 222 10; 228 10; 
230 10; 232 30; 233 20; 234 40; 235 10; 
236 10; 239 10; 242 10; 244 10; 245 10; 
246 30; 247 50; 248 30; 249 10; 251 20; 
253 10; 255 10; 256 10; 257 10; 258 10; 
259 10; 260 139; 261 80; 262 20; 267 10; 
268 10; 271 10; 272 40; 273 20; 274 109; 
275 30; 276 10; 279 10; 281 10; 282 10; 
284 10; 286 60; 287 10; 288 40; 289 10; 
293 10; 296 20; 297 10; 300 90; 301 20; 
302 20; 310 10; 314 159; 315 50; 316 10; 
328 30; 329 10; 340 10; 342 90; 343 409; 
344 90; 345 30; 346 10; 

