Name: Picolinyl 9,12-heptadecadienoate
Formula: C23H35NO2
MW: 357
NIST#: 335794
DB#: 56024
Comments: William W. Christie, Mylnefield Lipid Analysis, Invergowrie, Dundee, Scotland, UK
Num Peaks: 106
51 70; 52 50; 53 109; 54 169; 55 529; 
56 90; 57 199; 58 30; 60 30; 62 20; 
63 30; 64 40; 65 269; 66 60; 67 529; 
68 100; 69 229; 70 80; 71 90; 73 50; 
74 20; 76 20; 77 90; 78 70; 79 269; 
80 149; 81 339; 82 70; 83 119; 84 30; 
85 70; 87 30; 89 20; 91 169; 92 999; 
93 489; 94 249; 95 249; 96 40; 97 70; 
98 30; 99 30; 101 20; 105 30; 106 30; 
107 80; 108 619; 109 299; 110 109; 111 50; 
112 20; 113 20; 114 20; 117 40; 119 40; 
120 20; 121 50; 122 20; 123 100; 125 40; 
127 20; 132 20; 133 40; 134 30; 135 60; 
137 30; 141 30; 145 20; 147 40; 148 30; 
149 60; 151 189; 152 30; 154 10; 164 559; 
165 70; 166 20; 172 20; 178 90; 179 40; 
190 60; 192 30; 193 30; 206 60; 207 60; 
209 20; 220 100; 221 20; 234 40; 246 30; 
247 60; 260 119; 261 60; 272 30; 274 119; 
286 20; 300 80; 302 20; 314 109; 315 50; 
328 100; 329 20; 356 80; 357 359; 358 80; 
359 30; 

