Name: Picolinyl 9,12-octadecadienoate
Formula: C24H37NO2
MW: 371
NIST#: 335634
DB#: 186549
Comments: William W. Christie, Mylnefield Lipid Analysis, Invergowrie, Dundee, Scotland, UK
Num Peaks: 177
51 10; 52 10; 53 30; 54 70; 55 159; 
56 10; 57 20; 63 10; 64 10; 65 109; 
66 30; 67 269; 68 40; 69 70; 70 10; 
71 10; 77 40; 78 20; 79 149; 80 80; 
81 199; 82 30; 83 30; 84 10; 85 10; 
91 80; 92 729; 93 399; 94 70; 95 149; 
96 20; 97 20; 105 10; 106 20; 107 50; 
108 479; 109 249; 110 70; 111 10; 117 10; 
118 10; 119 20; 120 10; 121 30; 122 10; 
123 40; 124 10; 130 10; 131 10; 132 10; 
133 30; 134 20; 135 30; 136 10; 137 30; 
138 10; 144 10; 145 10; 146 10; 147 20; 
148 10; 149 30; 150 10; 151 169; 152 20; 
153 10; 158 10; 159 10; 160 10; 161 10; 
162 10; 163 30; 164 459; 165 60; 166 10; 
167 10; 170 10; 172 10; 173 10; 174 10; 
175 10; 176 10; 177 20; 178 80; 179 20; 
181 10; 184 10; 186 10; 187 10; 188 10; 
189 10; 190 20; 191 10; 192 40; 193 20; 
195 10; 198 10; 200 10; 202 10; 203 10; 
204 50; 205 20; 206 70; 207 30; 209 10; 
214 10; 216 10; 217 10; 218 20; 219 20; 
220 109; 221 30; 228 10; 229 10; 230 10; 
232 20; 233 20; 234 50; 235 10; 242 10; 
243 10; 244 20; 245 10; 246 30; 247 80; 
248 40; 249 10; 254 10; 256 20; 258 20; 
259 20; 260 219; 261 129; 262 40; 263 10; 
268 10; 270 10; 272 50; 273 20; 274 159; 
275 50; 276 20; 279 30; 280 10; 282 20; 
286 60; 287 20; 288 30; 289 10; 290 10; 
296 30; 297 10; 300 109; 301 50; 302 20; 
310 30; 311 10; 312 10; 314 229; 315 80; 
316 40; 317 10; 324 10; 328 199; 329 60; 
330 20; 342 100; 343 40; 344 10; 352 10; 
356 30; 357 10; 370 179; 371 999; 372 319; 
373 50; 374 10; 

